NAME: tsp45_20
COMMENT: 45-tsp problem (Padberg/Rinaldi)
TYPE: TSP
DIMENSION: 45
EDGE_WEIGHT_TYPE : EUC_2D
NODE_COORD_SECTION
1 26 5
2 39 30
3 35 28
4 22 28
5 25 33
6 18 15
7 16 36
8 15 9
9 31 12
10 36 8
11 33 23
12 9 36
13 35 34
14 31 26
15 30 37
16 36 29
17 36 39
18 32 24
19 18 15
20 14 0
21 25 29
22 22 16
23 37 31
24 26 16
25 9 31
26 39 36
27 3 25
28 38 24
29 7 29
30 29 31
31 20 36
32 34 10
33 16 8
34 24 39
35 6 10
36 24 5
37 12 23
38 7 4
39 22 1
40 35 35
41 10 29
42 12 6
43 33 29
44 0 23
45 25 38
